p cnf 1885 3245
-2 0
-3 0
-4 0
-5 0
-8 0
-9 0
-10 0
-11 0
-12 0
-13 0
-14 0
-15 0
-17 0
-18 0
-19 0
-20 0
-21 0
-22 0
-23 0
-24 0
-25 0
-26 0
-27 0
-28 0
-29 0
-30 0
-31 0
-32 0
-33 0
-34 0
-65 0
-66 0
-67 0
-68 0
-69 0
-70 0
-71 0
-77 0
-90 0
-91 0
-105 0
-114 0
-116 0
-123 0
-134 0
-135 0
-138 0
-139 0
-141 0
-145 0
-146 0
-158 0
-159 0
-160 0
-161 0
-162 0
-163 0
-164 0
-165 0
-166 0
-167 0
-169 0
-170 0
-172 0
-173 0
-174 0
-177 0
-178 0
-179 0
-181 0
-184 0
-185 0
-186 0
-187 0
-188 0
-191 0
-192 0
-193 0
-194 0
-197 0
-198 0
-199 0
-200 0
-201 0
-203 0
-207 0
-208 0
-210 0
-211 0
-212 0
-213 0
-214 0
-215 0
-233 0
-234 0
-236 0
-237 0
-238 0
-239 0
-240 0
-241 0
-245 0
-254 0
-255 0
-258 0
-259 0
-262 0
-264 0
-265 0
-266 0
-275 0
-276 0
-277 0
-278 0
-279 0
-280 0
-281 0
-282 0
-283 0
-291 0
-300 0
-301 0
-302 0
-303 0
-304 0
-305 0
-306 0
-307 0
-308 0
-309 0
-310 0
-311 0
-312 0
-313 0
-314 0
-315 0
-316 0
-317 0
-318 0
-319 0
-320 0
-321 0
-322 0
-324 0
-325 0
-326 0
-329 0
-330 0
-331 0
-333 0
-334 0
-335 0
-338 0
-339 0
-340 0
-341 0
-342 0
-343 0
-344 0
-345 0
-346 0
-347 0
-348 0
-349 0
-352 0
-355 0
-359 0
-360 0
-361 0
-362 0
-364 0
-365 0
-366 0
-367 0
-368 0
-369 0
-370 0
-371 0
-372 0
-373 0
-374 0
-378 0
-380 0
-381 0
-382 0
-383 0
-384 0
-385 0
-386 0
-387 0
-388 0
-389 0
-390 0
-391 0
-392 0
-393 0
-394 0
-395 0
-396 0
-397 0
-398 0
-399 0
-400 0
-401 0
-402 0
-403 0
-404 0
-405 0
-406 0
-407 0
-409 0
-410 0
-411 0
-412 0
-413 0
-414 0
-415 0
-417 0
-418 0
-420 0
-422 0
-423 0
-424 0
-425 0
-426 0
-427 0
-430 0
-431 0
-432 0
-433 0
-434 0
-435 0
-436 0
-437 0
-438 0
-445 0
-448 0
-449 0
-450 0
-451 0
-452 0
-456 0
-472 0
-473 0
-479 0
-480 0
-481 0
-482 0
-483 0
-484 0
-485 0
-486 0
-487 0
-488 0
-489 0
-498 0
-504 0
-505 0
-506 0
-507 0
-509 0
-510 0
-511 0
-512 0
-513 0
-514 0
-515 0
-516 0
-517 0
-518 0
-519 0
-520 0
-521 0
-522 0
-523 0
-524 0
-525 0
-526 0
-527 0
-528 0
-530 0
-531 0
-532 0
-533 0
-537 0
-538 0
-540 0
-541 0
-542 0
-543 0
-544 0
-545 0
-546 0
-547 0
-549 0
-551 0
-553 0
-557 0
-558 0
-562 0
-563 0
-564 0
-565 0
-566 0
-567 0
-568 0
-569 0
572 0
-576 0
577 0
-580 0
-581 0
-582 0
-583 0
-584 0
-585 0
-586 0
-587 0
-588 0
-589 0
-590 0
-591 0
-592 0
-593 0
-594 0
-595 0
-596 0
-597 0
-598 0
-599 0
-601 0
-602 0
-603 0
-604 0
-605 0
-606 0
-607 0
-608 0
-609 0
-610 0
-611 0
-612 0
-613 0
-614 0
-615 0
-616 0
-617 0
668 0
669 0
-670 0
-981 0
-982 0
-983 0
-984 0
-985 0
-986 0
-987 0
-988 0
-989 0
-990 0
-991 0
-992 0
-993 0
-994 0
-995 0
-996 0
-997 0
-998 0
-999 0
-1000 0
-1001 0
-1002 0
-1003 0
-1004 0
-1005 0
-1006 0
-1007 0
-1008 0
-1009 0
-1010 0
-1011 0
-1012 0
-1013 0
-1014 0
-1015 0
-1016 0
-1017 0
-1018 0
-1019 0
-1020 0
-1021 0
-1022 0
-1023 0
-1024 0
-1025 0
-1026 0
-1027 0
-1028 0
-1029 0
-1030 0
-1031 0
-1032 0
-1033 0
-1034 0
-1035 0
-1036 0
-1037 0
-1038 0
-1039 0
-1040 0
-1041 0
-1042 0
-1043 0
-1044 0
-1045 0
-1046 0
-1047 0
-1048 0
-1049 0
-1050 0
-1051 0
-1052 0
-1053 0
-1054 0
-1055 0
-1056 0
-1057 0
-1058 0
-1059 0
-1060 0
-1061 0
-1062 0
-1063 0
-1064 0
-1065 0
-1066 0
-1067 0
-1068 0
-1069 0
-1070 0
-1071 0
-1072 0
-1073 0
-1074 0
-1075 0
-1076 0
-1077 0
-1078 0
-1079 0
-1080 0
-1081 0
-1082 0
-1083 0
-1084 0
-1085 0
-1086 0
-1087 0
-1088 0
-1089 0
-1090 0
-1091 0
-1092 0
-1093 0
-1094 0
-1095 0
-1096 0
-1097 0
-1098 0
-1099 0
-1100 0
-1101 0
-1102 0
-1103 0
-1104 0
-1105 0
-1106 0
-1107 0
-1108 0
-1109 0
-1110 0
-1111 0
-1112 0
-1113 0
-1114 0
-1115 0
-1116 0
-1117 0
-1118 0
-1119 0
-1120 0
-1121 0
-1122 0
-1123 0
-1124 0
-1125 0
-1126 0
-1127 0
-1128 0
-1129 0
-1130 0
-1131 0
-1132 0
-1133 0
-1134 0
-1135 0
-1136 0
-1137 0
-1138 0
-1139 0
-1140 0
-1141 0
-1142 0
-1143 0
-1144 0
-1145 0
-1146 0
-1147 0
-1148 0
-1149 0
-1150 0
-1151 0
-1152 0
-1153 0
-1154 0
-1155 0
-1156 0
-1157 0
-1158 0
-1159 0
-1160 0
-1161 0
-1162 0
-1163 0
-1164 0
-1165 0
-1166 0
-1167 0
-1168 0
-1169 0
-1170 0
-1171 0
-1172 0
-1173 0
-1174 0
-1175 0
-1176 0
-1177 0
-1178 0
-1179 0
-1180 0
-1181 0
-1182 0
-1183 0
-1184 0
-1185 0
-1186 0
-1187 0
-1188 0
-1189 0
-1190 0
-1191 0
-1192 0
-1193 0
-1194 0
-1195 0
-1196 0
-1197 0
-1198 0
-1199 0
-1200 0
-1201 0
-1202 0
-1203 0
-1204 0
-1205 0
-1206 0
-1207 0
-1208 0
-1209 0
-1210 0
-1211 0
-1212 0
-1213 0
-1214 0
-1215 0
-1216 0
-1217 0
-1218 0
-1219 0
-1220 0
-1221 0
-1222 0
-1223 0
-1224 0
-1225 0
-1226 0
-1227 0
-1228 0
-1229 0
-1230 0
-1231 0
-1232 0
-1233 0
-1234 0
-1235 0
-1236 0
-1237 0
-1238 0
-1239 0
-1240 0
-1241 0
-1242 0
-1243 0
-1244 0
-1245 0
-1246 0
-1247 0
-1248 0
-1249 0
-1250 0
-1251 0
-1252 0
-1253 0
-1254 0
-1255 0
-1256 0
-1257 0
-1258 0
-1259 0
-1260 0
-1261 0
-1262 0
-1263 0
-1264 0
-1265 0
-1266 0
-1267 0
-1268 0
-1269 0
-1270 0
-1271 0
-1272 0
-1273 0
-1274 0
-1275 0
-1276 0
-1277 0
-1278 0
-1279 0
-1280 0
-1281 0
-1282 0
-1283 0
-1284 0
-1285 0
-1286 0
-1287 0
-1288 0
-1289 0
-1290 0
-1291 0
-1292 0
-1293 0
-1294 0
-1295 0
-1296 0
-1297 0
-1298 0
-1299 0
-1300 0
-1301 0
-1302 0
-1303 0
-1304 0
-1305 0
-1306 0
-1307 0
-1308 0
-1309 0
-1310 0
-1311 0
-1312 0
-1313 0
-1314 0
-1315 0
-1316 0
-1317 0
-1318 0
-1319 0
-1320 0
-1321 0
-1322 0
-1323 0
-1324 0
-1325 0
-1326 0
-1327 0
-1328 0
-1329 0
-1330 0
-1331 0
-1332 0
-1333 0
-1334 0
-1335 0
-1336 0
-1337 0
-1338 0
-1339 0
-1340 0
-1341 0
-1342 0
-1343 0
-1344 0
-1345 0
-1346 0
-1347 0
-1348 0
-1349 0
-1350 0
-1351 0
-1352 0
-1353 0
-1354 0
-1355 0
-1356 0
-1357 0
-1358 0
-1359 0
-1360 0
-1361 0
-1362 0
-1363 0
-1364 0
-1365 0
-1366 0
-1367 0
-1368 0
-1369 0
-1370 0
-1371 0
-1372 0
-1373 0
-1374 0
-1375 0
-1376 0
-1377 0
-1378 0
-1379 0
-1380 0
-1381 0
-1382 0
-1383 0
-1384 0
-1385 0
-1386 0
-1387 0
-1388 0
-1389 0
-1390 0
-1391 0
-1392 0
-1393 0
-1394 0
-1395 0
-1396 0
-1397 0
-1398 0
-1399 0
-1400 0
-1401 0
-1402 0
-1403 0
-1404 0
-1405 0
-1406 0
-1407 0
-1408 0
-1409 0
-1410 0
-1411 0
-1412 0
-1413 0
-1414 0
-1415 0
-1416 0
-1417 0
-1418 0
-1419 0
-1420 0
-1421 0
-1422 0
-1423 0
-1424 0
-1425 0
-1426 0
-1427 0
-1428 0
-1429 0
-1430 0
-1431 0
-1432 0
-1433 0
-1434 0
-1435 0
-1436 0
-1437 0
-1438 0
-1439 0
-1440 0
-1441 0
-1442 0
-1443 0
-1444 0
-1445 0
-1446 0
-1447 0
-1448 0
-1449 0
-1450 0
-1451 0
-1452 0
-1453 0
-1454 0
-1455 0
-1456 0
-1457 0
-1458 0
-1459 0
-1460 0
-1461 0
-1462 0
-1463 0
-1464 0
-1465 0
-1466 0
-1467 0
-1468 0
-1469 0
-1470 0
-1471 0
-1472 0
-1473 0
-1474 0
-1475 0
-1476 0
-1477 0
-1478 0
-1479 0
-1480 0
-1481 0
-1482 0
-1483 0
-1484 0
-1485 0
-1486 0
-1487 0
-1488 0
-1489 0
-1490 0
-1491 0
-1492 0
-1493 0
-1494 0
-1495 0
-1496 0
-1497 0
-1498 0
-1499 0
-1500 0
-1501 0
-1502 0
-1503 0
-1504 0
-1505 0
-1506 0
-1507 0
-1508 0
-1509 0
-1510 0
-1511 0
-1512 0
-1513 0
-1514 0
-1515 0
-1516 0
-1517 0
-1518 0
-1519 0
-1520 0
-1521 0
-1522 0
-1523 0
-1524 0
-1525 0
-1526 0
-1527 0
-1528 0
-1529 0
-1530 0
-1531 0
-1532 0
-1533 0
-1534 0
-1535 0
-1536 0
-1537 0
-1538 0
-1539 0
-1540 0
-1541 0
-1542 0
-1543 0
-1544 0
-1545 0
-1546 0
-1547 0
-1548 0
-1549 0
-1550 0
-1551 0
-1552 0
-1553 0
-1554 0
-1555 0
-1556 0
-1557 0
-1558 0
-1559 0
-1560 0
-1561 0
-1562 0
-1563 0
-1564 0
-1565 0
-1566 0
-1567 0
-1568 0
-1569 0
-1570 0
-1571 0
-1572 0
-1573 0
-1574 0
-1575 0
-1576 0
-1577 0
-1578 0
-1579 0
-1580 0
-1581 0
-1582 0
-1583 0
-1584 0
-1585 0
-1586 0
-1587 0
-1588 0
-1589 0
-1590 0
-1591 0
-1592 0
-1593 0
-1594 0
-1595 0
-1596 0
-1597 0
-1598 0
-1599 0
-1600 0
-1601 0
-1602 0
-1603 0
-1604 0
-1605 0
-1606 0
-1607 0
-1608 0
-1609 0
-1610 0
-1611 0
-1612 0
-1613 0
-1614 0
-1615 0
-1616 0
-1617 0
-1618 0
-1619 0
-1620 0
-1621 0
-1622 0
-1623 0
-1624 0
-1625 0
-1626 0
-1627 0
-1628 0
-1629 0
-1630 0
-1631 0
-1632 0
-1633 0
-1634 0
-1635 0
-1636 0
-1637 0
-1638 0
-1639 0
-1640 0
-1641 0
-1642 0
-1643 0
-1644 0
-1645 0
-1646 0
-1647 0
-1648 0
-1649 0
-1650 0
-1651 0
-1652 0
-1653 0
-1654 0
-1655 0
-1656 0
-1657 0
-1658 0
-1659 0
-1660 0
-1661 0
-1662 0
-1663 0
-1664 0
-1665 0
-1666 0
-1667 0
-1668 0
-1669 0
-1670 0
-1671 0
-1672 0
-1673 0
-1674 0
-1675 0
-1676 0
-1677 0
-1678 0
-1679 0
-1680 0
-1681 0
-1682 0
-1683 0
-1684 0
-1685 0
-1686 0
-1687 0
-1688 0
-1689 0
-1690 0
-1691 0
-1692 0
-1693 0
-1694 0
-1695 0
-1696 0
-1697 0
-1698 0
-1699 0
-1700 0
-1701 0
-1702 0
-1703 0
-1704 0
-1705 0
-1706 0
-1707 0
-1708 0
-1709 0
-1710 0
-1711 0
-1712 0
-1713 0
-1714 0
-1715 0
-1716 0
-1717 0
-1718 0
-1719 0
-1720 0
-1721 0
-1722 0
-1723 0
-1724 0
-1725 0
-1726 0
-1727 0
-1728 0
-1729 0
-1730 0
-1731 0
-1732 0
-1733 0
-1734 0
-1735 0
-1736 0
-1737 0
-1738 0
-1739 0
-1740 0
-1741 0
-1742 0
-1743 0
-1744 0
-1745 0
-1746 0
-1747 0
-1748 0
-1749 0
-1750 0
-1751 0
-1752 0
-1753 0
-1754 0
-1755 0
-1756 0
-1757 0
-1758 0
-1759 0
-1760 0
-1761 0
-1762 0
-1763 0
-1764 0
-1765 0
-1766 0
-1767 0
-1768 0
-1769 0
-1770 0
-1771 0
-1772 0
-1773 0
-1774 0
-1775 0
-1776 0
-1777 0
-1778 0
-1779 0
-1780 0
-1781 0
-1782 0
-1783 0
-1784 0
-1785 0
-1786 0
-1787 0
-1788 0
-1789 0
-1790 0
-1791 0
-1792 0
-1793 0
-1794 0
-1795 0
-1796 0
-1797 0
-1798 0
-1799 0
-1800 0
-1801 0
-1802 0
-1803 0
-1804 0
-1805 0
-1806 0
-1807 0
-1808 0
-1809 0
-1810 0
-1811 0
-1812 0
-1813 0
-1814 0
-1815 0
-1816 0
-1817 0
-1818 0
-1819 0
-1820 0
-1821 0
-1822 0
-1823 0
-1824 0
-1825 0
-1826 0
-1827 0
-1828 0
-1829 0
-1830 0
-1831 0
-1832 0
-1833 0
-1834 0
-1835 0
-1836 0
-1837 0
-1838 0
-1839 0
-1840 0
-1841 0
-1842 0
-1843 0
-1844 0
-1845 0
-1846 0
-1847 0
-1848 0
-1849 0
-1850 0
-1851 0
-1852 0
-1853 0
-1854 0
-1855 0
-1856 0
-1857 0
-1858 0
-1859 0
-1860 0
-1861 0
-1862 0
-1863 0
-1864 0
-1865 0
-1866 0
-1867 0
-1868 0
-1869 0
-1870 0
-1871 0
-1872 0
-1873 0
-1874 0
-1875 0
-1876 0
-1877 0
-1878 0
-1879 0
-1880 0
-1881 0
-1882 0
-1883 0
-1884 0
-1885 0
-6 -1 0
-7 -1 0
-16 -1 0
-45 1 0
-55 56 0
-55 57 0
-58 1 0
-59 1 0
-6 -1 0
-7 -6 0
-16 -6 0
-73 -72 0
-74 -72 0
-75 -72 0
-76 -72 0
-78 -72 0
-79 -73 0
-79 -74 0
-79 -75 0
-79 -76 0
-79 -78 0
-73 -72 0
-79 -73 0
-80 -73 0
-81 -73 0
-82 -73 0
-83 -73 0
-84 -73 0
-85 -73 0
-86 -73 0
-87 -73 0
-88 -73 0
-89 -73 0
-80 -73 0
-80 -74 0
-80 -75 0
-80 -76 0
-80 -78 0
-81 -73 0
-81 -74 0
-81 -75 0
-81 -76 0
-81 -78 0
-82 -73 0
-82 -74 0
-82 -75 0
-82 -76 0
-82 -78 0
-74 -72 0
-79 -74 0
-80 -74 0
-81 -74 0
-82 -74 0
-83 -74 0
-84 -74 0
-85 -74 0
-86 -74 0
-87 -74 0
-88 -74 0
-89 -74 0
-83 -73 0
-83 -74 0
-83 -75 0
-83 -76 0
-83 -78 0
-75 -72 0
-79 -75 0
-80 -75 0
-81 -75 0
-82 -75 0
-83 -75 0
-84 -75 0
-85 -75 0
-86 -75 0
-87 -75 0
-88 -75 0
-89 -75 0
-92 -73 0
-92 -74 0
-92 -75 0
-92 -76 0
-92 -78 0
-76 -72 0
-79 -76 0
-80 -76 0
-81 -76 0
-82 -76 0
-83 -76 0
-84 -76 0
-85 -76 0
-86 -76 0
-87 -76 0
-88 -76 0
-89 -76 0
-84 -73 0
-84 -74 0
-84 -75 0
-84 -76 0
-84 -78 0
-85 -73 0
-85 -74 0
-85 -75 0
-85 -76 0
-85 -78 0
-78 -72 0
-79 -78 0
-80 -78 0
-81 -78 0
-82 -78 0
-83 -78 0
-84 -78 0
-85 -78 0
-86 -78 0
-87 -78 0
-88 -78 0
-89 -78 0
-86 -73 0
-86 -74 0
-86 -75 0
-86 -76 0
-86 -78 0
-87 -73 0
-87 -74 0
-87 -75 0
-87 -76 0
-87 -78 0
-101 6 0
-88 -73 0
-88 -74 0
-88 -75 0
-88 -76 0
-88 -78 0
-89 -73 0
-89 -74 0
-89 -75 0
-89 -76 0
-89 -78 0
-102 6 0
-7 -1 0
-7 -6 0
-16 -7 0
-108 7 0
-111 7 0
-112 113 0
-115 -112 0
-117 7 0
-119 120 121 122 0
-131 -130 0
-132 -130 133 0
-130 132 0
-136 -131 133 137 0
-136 -132 0
-136 131 0
-143 144 0
-147 -143 0
-148 -143 0
-149 -143 0
-150 -143 0
-151 -143 0
-152 -143 0
-153 -143 0
-154 -143 0
-157 -144 0
-157 -115 0
-171 -168 0
-175 -168 0
-176 -168 0
-168 -144 0
-180 -168 0
-168 -115 0
-182 -168 0
-183 -168 0
-171 147 148 150 151 0
-171 147 148 157 0
-171 -115 0
-171 -168 0
-175 -171 0
-176 -171 0
-171 -144 0
-180 -171 0
-175 147 150 151 0
-175 147 157 0
-175 -168 0
-175 -171 0
-176 -175 0
-175 -144 0
-180 -175 0
-175 -115 0
-176 147 150 151 0
-176 147 157 0
-176 -168 0
-176 -171 0
-176 -175 0
-176 -144 0
-180 -176 0
-176 -115 0
-144 -131 143 0
-144 -132 0
-144 131 0
-144 204 205 206 0
-144 143 147 0
-157 -144 0
-168 -144 0
-171 -144 0
-175 -144 0
-176 -144 0
-180 -144 0
-144 -115 0
-182 -144 0
-183 -144 0
-180 147 150 151 0
-180 147 157 0
-180 -168 0
-180 -171 0
-180 -175 0
-180 -176 0
-180 -144 0
-180 -115 0
-147 -143 0
-148 -147 0
-149 -147 0
-150 -147 0
-151 -147 0
-152 -147 0
-153 -147 0
-154 -147 0
-148 120 216 217 218 219 220 221 222 223 224 225 226 227 228 229 230 231 232 0
-148 -143 0
-148 -147 0
-149 -148 0
-150 -148 0
-151 -148 0
-152 -148 0
-153 -148 0
-154 -148 0
-16 -1 0
-16 -6 0
-16 -7 0
-242 243 0
-247 16 0
-248 16 0
-250 16 0
-251 16 0
-256 -56 0
-257 -56 0
-256 -253 -252 0
-256 -137 0
-256 -56 0
-257 -256 0
-257 -253 -252 0
-257 -137 0
-257 -56 0
-257 -256 0
-263 -261 0
-261 -115 0
-270 271 0
-274 -271 0
-274 -115 0
-274 -271 0
-284 -206 0
-216 243 0
-217 243 0
-428 243 0
-429 -294 137 0
-429 -294 0
-429 -294 0
-218 243 0
-219 243 0
-149 -143 0
-149 -148 0
-150 -149 0
-151 -149 0
-152 -149 0
-153 -149 0
-154 -149 0
-296 -149 0
-285 -149 0
-439 243 0
-440 243 0
-220 243 0
-221 243 0
-441 243 0
-222 243 0
-442 243 0
-223 243 0
-444 -323 0
-323 -115 0
-224 243 0
-225 243 0
-226 243 0
-227 243 0
-446 243 0
-447 243 0
-228 243 0
-229 243 0
-230 243 0
-231 243 0
-287 -137 0
-293 -287 0
-293 113 137 0
-293 -287 0
-416 455 0
-416 -327 0
-416 -328 0
-416 -115 0
-441 -416 0
-457 -416 0
-458 -416 0
-459 -416 0
-460 -416 0
-461 -416 0
-462 -416 0
-463 -416 0
-464 -416 0
-465 -416 0
-416 -327 0
-328 -327 0
-328 455 0
-416 -328 0
-328 -327 0
-328 -120 0
-328 -217 0
-466 -328 0
-328 -218 0
-328 -222 0
-328 -223 0
-328 -225 0
-328 -226 0
-467 -328 0
-328 -227 0
-328 -228 0
-328 -229 0
-328 -230 0
-328 -231 0
-468 -328 0
-469 -328 0
-470 -328 0
-471 -328 0
-263 -261 0
-263 -115 0
-350 -263 0
-351 -263 0
-354 -263 0
-356 -263 0
-357 -263 0
-358 -263 0
-263 -206 0
-376 -263 0
-476 -115 0
-115 419 0
-416 -115 0
-379 -115 0
-376 -115 0
-375 -115 0
-363 -115 0
-358 -115 0
-357 -115 0
-356 -115 0
-354 -115 0
-353 -115 0
-351 -115 0
-350 -115 0
-337 -115 0
-336 -115 0
-332 -115 0
-323 -115 0
-298 -115 0
-274 -115 0
-299 -115 0
-263 -115 0
-261 -115 0
-474 -115 252 0
-115 252 0
-115 252 0
-243 -115 0
-206 -115 0
-180 -115 0
-176 -115 0
-175 -115 0
-171 -115 0
-168 -115 0
-157 -115 0
-115 132 0
-131 -115 0
-115 -112 0
-477 243 0
-298 -115 0
-429 -298 0
-299 -115 0
-429 -299 0
-478 243 0
-332 -115 0
-421 -332 0
-490 243 0
-429 -297 0
-336 -224 0
-336 -115 0
-337 -115 0
-492 243 0
-493 243 0
-494 419 0
-495 419 0
-150 -143 0
-150 -147 0
-150 -148 0
-150 -149 0
-151 -150 0
-152 -150 0
-153 -150 0
-154 -150 0
-151 -143 0
-151 -147 0
-151 -148 0
-151 -149 0
-151 -150 0
-152 -151 0
-153 -151 0
-154 -151 0
-152 -143 0
-152 -147 0
-152 -148 0
-152 -149 0
-152 -150 0
-152 -151 0
-153 -152 0
-154 -152 0
-153 -143 0
-153 -148 0
-153 -149 0
-153 -150 0
-153 -151 0
-153 -152 0
-154 -153 0
-154 -143 0
-154 -148 0
-154 -149 0
-154 -150 0
-154 -151 0
-154 -152 0
-154 -153 0
-497 206 463 0
-497 -419 0
-497 -363 0
-419 57 115 459 462 494 495 499 500 501 0
-497 -419 0
-419 -363 0
-502 243 0
-503 243 0
-444 -323 0
-508 243 0
-421 -332 0
-534 -529 0
-535 -529 0
-536 -529 0
-534 -529 0
-535 -534 0
-536 -534 0
-539 419 0
-535 -529 0
-535 -534 0
-536 -535 0
-536 -529 0
-536 -534 0
-536 -535 0
-499 419 0
-499 377 0
-296 147 148 150 151 152 153 154 0
-296 -149 0
-182 175 176 180 0
-182 -168 0
-182 -144 0
-183 147 148 0
-183 171 175 176 180 0
-183 120 0
-183 -168 0
-183 -144 0
-183 -115 0
-57 419 0
-57 -56 55 0
-285 147 148 150 151 152 153 154 0
-429 115 0
-429 -294 137 0
-429 -294 0
-429 -294 0
-429 -298 0
-429 -299 0
-429 -297 0
-350 -132 0
-350 131 0
-350 -263 0
-350 -115 0
-351 -350 0
-354 -350 0
-356 -350 0
-357 -350 0
-358 -350 0
-350 -206 0
-376 -350 0
-459 419 0
-500 419 0
-351 -132 0
-351 131 0
-351 -263 0
-351 -115 0
-351 -350 0
-354 -351 0
-356 -351 0
-357 -351 0
-358 -351 0
-351 -206 0
-376 -351 0
-353 -132 0
-353 131 0
-353 -115 0
-354 -132 0
-354 131 0
-354 -263 0
-354 -115 0
-354 -350 0
-354 -351 0
-356 -354 0
-357 -354 0
-358 -354 0
-354 -206 0
-376 -354 0
-356 -132 0
-356 131 0
-356 -263 0
-356 -115 0
-356 -350 0
-356 -351 0
-356 -354 0
-357 -356 0
-358 -356 0
-356 -206 0
-376 -356 0
-357 -132 0
-357 131 0
-357 -115 0
-358 -131 0
-358 132 0
-358 -263 0
-358 -115 0
-358 -350 0
-358 -351 0
-358 -354 0
-358 -356 0
-358 -357 0
-358 -206 0
-376 -358 0
-206 497 0
-263 -206 0
-206 -115 0
-419 -206 0
-350 -206 0
-351 -206 0
-354 -206 0
-356 -206 0
-357 -206 0
-358 -206 0
-376 -206 0
-501 419 0
-462 419 0
-288 147 0
-552 113 0
-476 -115 0
-463 497 0
-554 419 0
-555 419 0
-556 292 0
-363 -115 0
-497 -363 0
-419 -363 0
-560 243 0
-290 -289 0
-290 -289 0
-375 -115 0
-375 -243 0
-379 -375 0
-376 -132 0
-376 131 0
-376 -263 0
-376 -115 0
-376 -350 0
-376 -351 0
-376 -354 0
-376 -356 0
-376 -357 0
-376 -358 0
-376 -206 0
-243 -115 0
-375 -243 0
-377 -243 0
-379 -243 0
-377 -243 0
-379 -115 0
-379 -375 0
-379 -243 0
-574 137 252 0
-574 137 253 408 0
-575 -574 0
-575 252 0
-575 408 0
-575 -574 0
-575 -56 0
-474 578 0
-474 579 0
-252 253 408 0
-252 -137 0
-137 600 0
-252 -137 0
-579 578 0
-579 474 0
-579 -408 0
-579 -253 0
-600 -579 0
-408 252 0
-579 -408 0
-408 -253 0
-600 -408 0
-578 579 0
-578 474 0
-253 252 0
-579 -253 0
-408 -253 0
-600 -253 0
-600 137 0
-600 -579 0
-600 -408 0
-600 -253 0
-45 1 6 7 16 0
-58 1 6 7 16 0
-59 1 6 7 16 0
-57 -56 55 0
-101 1 6 7 16 0
-102 1 6 7 16 0
-217 72 73 74 75 76 78 0
-671 72 73 74 75 76 78 0
-672 72 73 74 75 76 78 0
-225 72 73 74 75 76 78 0
-216 73 74 75 76 78 79 0
-224 73 74 75 76 78 79 0
-758 73 74 75 76 78 80 0
-757 73 74 75 76 78 80 0
-756 73 74 75 76 78 80 0
-755 73 74 75 76 78 80 0
-754 73 74 75 76 78 80 0
-753 73 74 75 76 78 80 0
-752 73 74 75 76 78 80 0
-751 73 74 75 76 78 80 0
-750 73 74 75 76 78 80 0
-749 73 74 75 76 78 80 0
-748 73 74 75 76 78 80 0
-747 73 74 75 76 78 80 0
-746 73 74 75 76 78 80 0
-745 73 74 75 76 78 80 0
-744 73 74 75 76 78 80 0
-743 73 74 75 76 78 80 0
-742 73 74 75 76 78 80 0
-741 73 74 75 76 78 80 0
-740 73 74 75 76 78 80 0
-739 73 74 75 76 78 80 0
-738 73 74 75 76 78 80 0
-737 73 74 75 76 78 80 0
-736 73 74 75 76 78 80 0
-735 73 74 75 76 78 80 0
-734 73 74 75 76 78 80 0
-733 73 74 75 76 78 80 0
-732 73 74 75 76 78 80 0
-731 73 74 75 76 78 80 0
-730 73 74 75 76 78 80 0
-729 73 74 75 76 78 80 0
-728 73 74 75 76 78 80 0
-727 73 74 75 76 78 80 0
-726 73 74 75 76 78 80 0
-725 73 74 75 76 78 80 0
-724 73 74 75 76 78 80 0
-723 73 74 75 76 78 80 0
-722 73 74 75 76 78 80 0
-721 73 74 75 76 78 80 0
-720 73 74 75 76 78 80 0
-719 73 74 75 76 78 80 0
-718 73 74 75 76 78 80 0
-717 73 74 75 76 78 80 0
-716 73 74 75 76 78 80 0
-715 73 74 75 76 78 80 0
-714 73 74 75 76 78 80 0
-713 73 74 75 76 78 80 0
-712 73 74 75 76 78 80 0
-711 73 74 75 76 78 80 0
-710 73 74 75 76 78 80 0
-709 73 74 75 76 78 80 0
-708 73 74 75 76 78 80 0
-707 73 74 75 76 78 80 0
-706 73 74 75 76 78 80 0
-705 73 74 75 76 78 80 0
-704 73 74 75 76 78 80 0
-703 73 74 75 76 78 80 0
-702 73 74 75 76 78 80 0
-701 73 74 75 76 78 80 0
-700 73 74 75 76 78 80 0
-699 73 74 75 76 78 80 0
-698 73 74 75 76 78 80 0
-697 73 74 75 76 78 80 0
-696 73 74 75 76 78 80 0
-695 73 74 75 76 78 80 0
-694 73 74 75 76 78 80 0
-693 73 74 75 76 78 80 0
-692 73 74 75 76 78 80 0
-691 73 74 75 76 78 80 0
-690 73 74 75 76 78 80 0
-689 73 74 75 76 78 80 0
-688 73 74 75 76 78 80 0
-687 73 74 75 76 78 80 0
-686 73 74 75 76 78 80 0
-685 73 74 75 76 78 80 0
-684 73 74 75 76 78 80 0
-683 73 74 75 76 78 80 0
-682 73 74 75 76 78 80 0
-681 73 74 75 76 78 80 0
-680 73 74 75 76 78 80 0
-679 73 74 75 76 78 80 0
-678 73 74 75 76 78 80 0
-677 73 74 75 76 78 80 0
-676 73 74 75 76 78 80 0
-675 73 74 75 76 78 80 0
-674 73 74 75 76 78 80 0
-673 73 74 75 76 78 80 0
-469 73 74 75 76 78 80 0
-467 73 74 75 76 78 80 0
-442 73 74 75 76 78 80 0
-428 73 74 75 76 78 80 0
-232 73 74 75 76 78 80 0
-230 73 74 75 76 78 80 0
-229 73 74 75 76 78 80 0
-226 73 74 75 76 78 80 0
-204 73 74 75 76 78 80 0
-122 73 74 75 76 78 80 0
-759 73 74 75 76 78 81 0
-760 73 74 75 76 78 81 0
-761 73 74 75 76 78 81 0
-762 73 74 75 76 78 81 0
-763 73 74 75 76 78 81 0
-466 73 74 75 76 78 81 0
-764 73 74 75 76 78 81 0
-765 73 74 75 76 78 81 0
-766 73 74 75 76 78 81 0
-767 73 74 75 76 78 81 0
-768 73 74 75 76 78 81 0
-769 73 74 75 76 78 81 0
-770 73 74 75 76 78 81 0
-771 73 74 75 76 78 81 0
-772 73 74 75 76 78 81 0
-867 73 74 75 76 78 83 0
-866 73 74 75 76 78 83 0
-865 73 74 75 76 78 83 0
-864 73 74 75 76 78 83 0
-863 73 74 75 76 78 83 0
-862 73 74 75 76 78 83 0
-861 73 74 75 76 78 83 0
-860 73 74 75 76 78 83 0
-859 73 74 75 76 78 83 0
-858 73 74 75 76 78 83 0
-857 73 74 75 76 78 83 0
-856 73 74 75 76 78 83 0
-855 73 74 75 76 78 83 0
-854 73 74 75 76 78 83 0
-853 73 74 75 76 78 83 0
-852 73 74 75 76 78 83 0
-851 73 74 75 76 78 83 0
-850 73 74 75 76 78 83 0
-849 73 74 75 76 78 83 0
-848 73 74 75 76 78 83 0
-847 73 74 75 76 78 83 0
-846 73 74 75 76 78 83 0
-845 73 74 75 76 78 83 0
-844 73 74 75 76 78 83 0
-843 73 74 75 76 78 83 0
-842 73 74 75 76 78 83 0
-841 73 74 75 76 78 83 0
-840 73 74 75 76 78 83 0
-839 73 74 75 76 78 83 0
-838 73 74 75 76 78 83 0
-837 73 74 75 76 78 83 0
-836 73 74 75 76 78 83 0
-835 73 74 75 76 78 83 0
-834 73 74 75 76 78 83 0
-833 73 74 75 76 78 83 0
-832 73 74 75 76 78 83 0
-831 73 74 75 76 78 83 0
-830 73 74 75 76 78 83 0
-829 73 74 75 76 78 83 0
-828 73 74 75 76 78 83 0
-827 73 74 75 76 78 83 0
-826 73 74 75 76 78 83 0
-825 73 74 75 76 78 83 0
-824 73 74 75 76 78 83 0
-823 73 74 75 76 78 83 0
-822 73 74 75 76 78 83 0
-821 73 74 75 76 78 83 0
-820 73 74 75 76 78 83 0
-819 73 74 75 76 78 83 0
-818 73 74 75 76 78 83 0
-817 73 74 75 76 78 83 0
-816 73 74 75 76 78 83 0
-815 73 74 75 76 78 83 0
-814 73 74 75 76 78 83 0
-813 73 74 75 76 78 83 0
-812 73 74 75 76 78 83 0
-811 73 74 75 76 78 83 0
-810 73 74 75 76 78 83 0
-809 73 74 75 76 78 83 0
-808 73 74 75 76 78 83 0
-807 73 74 75 76 78 83 0
-806 73 74 75 76 78 83 0
-805 73 74 75 76 78 83 0
-804 73 74 75 76 78 83 0
-803 73 74 75 76 78 83 0
-802 73 74 75 76 78 83 0
-801 73 74 75 76 78 83 0
-800 73 74 75 76 78 83 0
-799 73 74 75 76 78 83 0
-798 73 74 75 76 78 83 0
-797 73 74 75 76 78 83 0
-796 73 74 75 76 78 83 0
-795 73 74 75 76 78 83 0
-794 73 74 75 76 78 83 0
-793 73 74 75 76 78 83 0
-792 73 74 75 76 78 83 0
-791 73 74 75 76 78 83 0
-790 73 74 75 76 78 83 0
-789 73 74 75 76 78 83 0
-788 73 74 75 76 78 83 0
-787 73 74 75 76 78 83 0
-786 73 74 75 76 78 83 0
-785 73 74 75 76 78 83 0
-784 73 74 75 76 78 83 0
-783 73 74 75 76 78 83 0
-782 73 74 75 76 78 83 0
-781 73 74 75 76 78 83 0
-780 73 74 75 76 78 83 0
-779 73 74 75 76 78 83 0
-778 73 74 75 76 78 83 0
-777 73 74 75 76 78 83 0
-776 73 74 75 76 78 83 0
-775 73 74 75 76 78 83 0
-774 73 74 75 76 78 83 0
-773 73 74 75 76 78 83 0
-555 73 74 75 76 78 83 0
-554 73 74 75 76 78 83 0
-550 73 74 75 76 78 83 0
-539 73 74 75 76 78 83 0
-501 73 74 75 76 78 83 0
-500 73 74 75 76 78 83 0
-499 73 74 75 76 78 83 0
-493 73 74 75 76 78 83 0
-470 73 74 75 76 78 83 0
-468 73 74 75 76 78 83 0
-465 73 74 75 76 78 83 0
-464 73 74 75 76 78 83 0
-463 73 74 75 76 78 83 0
-462 73 74 75 76 78 83 0
-461 73 74 75 76 78 83 0
-460 73 74 75 76 78 83 0
-459 73 74 75 76 78 83 0
-458 73 74 75 76 78 83 0
-441 73 74 75 76 78 83 0
-440 73 74 75 76 78 83 0
-242 73 74 75 76 78 83 0
-221 73 74 75 76 78 83 0
-220 73 74 75 76 78 83 0
-121 73 74 75 76 78 83 0
-57 73 74 75 76 78 83 0
-868 73 74 75 76 78 92 0
-222 73 74 75 76 78 92 0
-869 73 74 75 76 78 92 0
-219 73 74 75 76 78 84 0
-223 73 74 75 76 78 84 0
-870 73 74 75 76 78 84 0
-457 73 74 75 76 78 84 0
-471 73 74 75 76 78 84 0
-871 73 74 75 76 78 84 0
-872 73 74 75 76 78 84 0
-873 73 74 75 76 78 84 0
-874 73 74 75 76 78 84 0
-875 73 74 75 76 78 84 0
-876 73 74 75 76 78 84 0
-877 73 74 75 76 78 84 0
-878 73 74 75 76 78 84 0
-879 73 74 75 76 78 84 0
-478 73 74 75 76 78 84 0
-880 73 74 75 76 78 84 0
-881 73 74 75 76 78 84 0
-882 73 74 75 76 78 84 0
-883 73 74 75 76 78 84 0
-884 73 74 75 76 78 84 0
-885 73 74 75 76 78 84 0
-886 73 74 75 76 78 84 0
-887 73 74 75 76 78 84 0
-888 73 74 75 76 78 84 0
-889 73 74 75 76 78 84 0
-890 73 74 75 76 78 84 0
-891 73 74 75 76 78 84 0
-892 73 74 75 76 78 84 0
-502 73 74 75 76 78 84 0
-893 73 74 75 76 78 84 0
-503 73 74 75 76 78 84 0
-508 73 74 75 76 78 84 0
-894 73 74 75 76 78 84 0
-839 73 74 75 76 78 84 0
-895 73 74 75 76 78 84 0
-560 73 74 75 76 78 84 0
-896 73 74 75 76 78 84 0
-439 73 74 75 76 78 85 0
-231 73 74 75 76 78 85 0
-897 73 74 75 76 78 85 0
-477 73 74 75 76 78 85 0
-490 73 74 75 76 78 85 0
-494 73 74 75 76 78 85 0
-898 73 74 75 76 78 85 0
-899 73 74 75 76 78 85 0
-900 73 74 75 76 78 85 0
-901 73 74 75 76 78 85 0
-495 73 74 75 76 78 85 0
-902 73 74 75 76 78 85 0
-903 73 74 75 76 78 85 0
-904 73 74 75 76 78 85 0
-905 73 74 75 76 78 85 0
-906 73 74 75 76 78 85 0
-907 73 74 75 76 78 85 0
-908 73 74 75 76 78 85 0
-909 73 74 75 76 78 85 0
-910 73 74 75 76 78 85 0
-911 73 74 75 76 78 85 0
-912 73 74 75 76 78 85 0
-227 73 74 75 76 78 86 0
-446 73 74 75 76 78 86 0
-447 73 74 75 76 78 86 0
-913 73 74 75 76 78 86 0
-914 73 74 75 76 78 86 0
-915 73 74 75 76 78 86 0
-916 73 74 75 76 78 86 0
-917 73 74 75 76 78 86 0
-918 73 74 75 76 78 86 0
-228 73 74 75 76 78 87 0
-470 73 74 75 76 78 88 0
-777 73 74 75 76 78 88 0
-471 73 74 75 76 78 88 0
-785 73 74 75 76 78 88 0
-880 73 74 75 76 78 88 0
-795 73 74 75 76 78 88 0
-888 73 74 75 76 78 88 0
-889 73 74 75 76 78 88 0
-822 73 74 75 76 78 88 0
-539 73 74 75 76 78 88 0
-824 73 74 75 76 78 88 0
-499 73 74 75 76 78 88 0
-834 73 74 75 76 78 88 0
-835 73 74 75 76 78 88 0
-550 73 74 75 76 78 88 0
-838 73 74 75 76 78 88 0
-841 73 74 75 76 78 88 0
-847 73 74 75 76 78 88 0
-849 73 74 75 76 78 88 0
-554 73 74 75 76 78 88 0
-555 73 74 75 76 78 88 0
-850 73 74 75 76 78 88 0
-919 73 74 75 76 78 89 0
-920 73 74 75 76 78 89 0
-921 73 74 75 76 78 89 0
-922 73 74 75 76 78 89 0
-923 73 74 75 76 78 89 0
-924 73 74 75 76 78 89 0
-925 73 74 75 76 78 89 0
-926 73 74 75 76 78 89 0
-492 73 74 75 76 78 89 0
-108 1 6 7 16 0
-111 1 6 7 16 0
-117 1 6 7 16 0
-122 106 0
-759 106 0
-750 106 0
-760 106 0
-217 106 0
-671 106 0
-672 106 0
-761 106 0
-762 106 0
-763 106 0
-428 106 0
-466 106 0
-751 106 0
-764 106 0
-765 106 0
-766 106 0
-218 106 0
-752 106 0
-753 106 0
-442 106 0
-754 106 0
-755 106 0
-224 106 0
-756 106 0
-225 106 0
-226 106 0
-757 106 0
-467 106 0
-758 106 0
-228 106 0
-229 106 0
-767 106 0
-230 106 0
-232 106 0
-469 106 0
-768 106 0
-769 106 0
-770 106 0
-771 106 0
-772 106 0
-927 107 0
-926 107 0
-925 107 0
-924 107 0
-923 107 0
-922 107 0
-921 107 0
-920 107 0
-919 107 0
-867 107 0
-866 107 0
-865 107 0
-864 107 0
-863 107 0
-862 107 0
-861 107 0
-860 107 0
-859 107 0
-858 107 0
-857 107 0
-856 107 0
-855 107 0
-854 107 0
-853 107 0
-852 107 0
-851 107 0
-850 107 0
-849 107 0
-848 107 0
-847 107 0
-846 107 0
-845 107 0
-844 107 0
-843 107 0
-842 107 0
-841 107 0
-840 107 0
-839 107 0
-838 107 0
-837 107 0
-836 107 0
-835 107 0
-834 107 0
-833 107 0
-832 107 0
-831 107 0
-830 107 0
-829 107 0
-828 107 0
-827 107 0
-826 107 0
-825 107 0
-824 107 0
-823 107 0
-822 107 0
-821 107 0
-820 107 0
-819 107 0
-818 107 0
-817 107 0
-816 107 0
-815 107 0
-814 107 0
-813 107 0
-812 107 0
-811 107 0
-810 107 0
-809 107 0
-808 107 0
-807 107 0
-806 107 0
-805 107 0
-804 107 0
-803 107 0
-802 107 0
-801 107 0
-800 107 0
-799 107 0
-798 107 0
-797 107 0
-796 107 0
-795 107 0
-794 107 0
-793 107 0
-792 107 0
-791 107 0
-790 107 0
-789 107 0
-788 107 0
-787 107 0
-786 107 0
-785 107 0
-784 107 0
-783 107 0
-782 107 0
-781 107 0
-780 107 0
-779 107 0
-778 107 0
-777 107 0
-776 107 0
-775 107 0
-774 107 0
-773 107 0
-555 107 0
-554 107 0
-550 107 0
-539 107 0
-501 107 0
-500 107 0
-499 107 0
-493 107 0
-492 107 0
-470 107 0
-468 107 0
-465 107 0
-464 107 0
-463 107 0
-462 107 0
-461 107 0
-460 107 0
-459 107 0
-458 107 0
-441 107 0
-440 107 0
-242 107 0
-221 107 0
-220 107 0
-121 107 0
-57 107 0
-868 109 0
-216 109 0
-219 109 0
-222 109 0
-869 109 0
-223 109 0
-870 109 0
-457 109 0
-471 109 0
-871 109 0
-872 109 0
-873 109 0
-874 109 0
-875 109 0
-876 109 0
-877 109 0
-878 109 0
-879 109 0
-478 109 0
-880 109 0
-881 109 0
-882 109 0
-883 109 0
-884 109 0
-885 109 0
-886 109 0
-887 109 0
-888 109 0
-889 109 0
-890 109 0
-891 109 0
-892 109 0
-502 109 0
-893 109 0
-503 109 0
-508 109 0
-894 109 0
-895 109 0
-560 109 0
-896 109 0
-439 110 0
-227 110 0
-446 110 0
-447 110 0
-231 110 0
-913 110 0
-914 110 0
-915 110 0
-897 110 0
-916 110 0
-477 110 0
-490 110 0
-917 110 0
-494 110 0
-898 110 0
-899 110 0
-900 110 0
-901 110 0
-495 110 0
-902 110 0
-903 110 0
-904 110 0
-905 110 0
-906 110 0
-918 110 0
-907 110 0
-908 110 0
-909 110 0
-928 110 0
-910 110 0
-911 110 0
-912 110 0
-869 118 0
-868 118 0
-831 118 0
-776 118 0
-775 118 0
-774 118 0
-772 118 0
-771 118 0
-770 118 0
-769 118 0
-768 118 0
-767 118 0
-766 118 0
-765 118 0
-764 118 0
-762 118 0
-761 118 0
-760 118 0
-759 118 0
-758 118 0
-757 118 0
-756 118 0
-755 118 0
-754 118 0
-753 118 0
-752 118 0
-751 118 0
-750 118 0
-749 118 0
-748 118 0
-747 118 0
-746 118 0
-745 118 0
-744 118 0
-743 118 0
-742 118 0
-741 118 0
-740 118 0
-739 118 0
-738 118 0
-737 118 0
-736 118 0
-735 118 0
-734 118 0
-733 118 0
-732 118 0
-731 118 0
-730 118 0
-729 118 0
-728 118 0
-727 118 0
-726 118 0
-725 118 0
-724 118 0
-723 118 0
-722 118 0
-721 118 0
-720 118 0
-719 118 0
-718 118 0
-717 118 0
-716 118 0
-715 118 0
-714 118 0
-713 118 0
-712 118 0
-711 118 0
-710 118 0
-709 118 0
-708 118 0
-707 118 0
-706 118 0
-705 118 0
-704 118 0
-703 118 0
-702 118 0
-701 118 0
-700 118 0
-699 118 0
-698 118 0
-697 118 0
-696 118 0
-695 118 0
-694 118 0
-693 118 0
-692 118 0
-691 118 0
-690 118 0
-689 118 0
-688 118 0
-687 118 0
-686 118 0
-685 118 0
-684 118 0
-683 118 0
-682 118 0
-681 118 0
-680 118 0
-679 118 0
-678 118 0
-677 118 0
-676 118 0
-675 118 0
-674 118 0
-673 118 0
-672 118 0
-671 118 0
-469 118 0
-468 118 0
-467 118 0
-466 118 0
-447 118 0
-446 118 0
-442 118 0
-441 118 0
-440 118 0
-439 118 0
-428 118 0
-232 118 0
-231 118 0
-230 118 0
-229 118 0
-228 118 0
-227 118 0
-226 118 0
-225 118 0
-224 118 0
-223 118 0
-222 118 0
-219 118 0
-218 118 0
-217 118 0
-216 118 0
-492 124 0
-493 124 0
-801 124 0
-802 124 0
-494 124 0
-803 124 0
-898 124 0
-899 124 0
-892 124 0
-804 124 0
-900 124 0
-901 124 0
-495 124 0
-902 124 0
-903 124 0
-805 124 0
-904 124 0
-806 124 0
-807 124 0
-808 124 0
-809 124 0
-810 124 0
-811 124 0
-812 124 0
-813 124 0
-814 124 0
-815 124 0
-816 124 0
-502 124 0
-893 124 0
-503 124 0
-817 124 0
-818 124 0
-905 124 0
-819 124 0
-906 124 0
-918 124 0
-907 124 0
-908 124 0
-820 124 0
-508 124 0
-909 124 0
-928 124 0
-910 124 0
-821 124 0
-911 124 0
-912 124 0
-823 125 0
-499 125 0
-825 125 0
-826 125 0
-827 125 0
-828 125 0
-57 125 0
-830 125 0
-459 125 0
-500 125 0
-832 125 0
-833 125 0
-501 125 0
-836 125 0
-461 125 0
-894 125 0
-462 125 0
-840 125 0
-842 125 0
-843 125 0
-844 125 0
-845 125 0
-846 125 0
-463 125 0
-464 125 0
-895 125 0
-822 126 0
-539 126 0
-824 126 0
-834 126 0
-460 126 0
-835 126 0
-550 126 0
-838 126 0
-839 126 0
-841 126 0
-847 126 0
-849 126 0
-554 126 0
-555 126 0
-850 126 0
-917 127 0
-916 127 0
-915 127 0
-914 127 0
-913 127 0
-897 127 0
-891 127 0
-890 127 0
-889 127 0
-888 127 0
-887 127 0
-886 127 0
-885 127 0
-884 127 0
-883 127 0
-881 127 0
-880 127 0
-879 127 0
-878 127 0
-877 127 0
-876 127 0
-875 127 0
-874 127 0
-873 127 0
-872 127 0
-871 127 0
-870 127 0
-799 127 0
-798 127 0
-797 127 0
-796 127 0
-795 127 0
-794 127 0
-793 127 0
-792 127 0
-791 127 0
-790 127 0
-789 127 0
-788 127 0
-787 127 0
-786 127 0
-785 127 0
-784 127 0
-783 127 0
-782 127 0
-781 127 0
-780 127 0
-779 127 0
-778 127 0
-777 127 0
-490 127 0
-478 127 0
-477 127 0
-471 127 0
-470 127 0
-458 127 0
-457 127 0
-848 128 0
-851 128 0
-852 128 0
-853 128 0
-854 128 0
-855 128 0
-465 128 0
-856 128 0
-857 128 0
-858 128 0
-560 128 0
-896 128 0
-859 128 0
-860 128 0
-861 128 0
-862 128 0
-863 128 0
-864 128 0
-865 128 0
-866 128 0
-867 128 0
-220 129 0
-221 129 0
-919 129 0
-920 129 0
-921 129 0
-922 129 0
-923 129 0
-924 129 0
-925 129 0
-926 129 0
-800 129 0
-829 129 0
-927 129 0
-837 129 0
-137 -131 136 0
-144 143 147 148 149 150 151 152 153 154 0
-175 115 144 157 0
-176 115 144 157 0
-180 115 144 157 0
-136 -131 133 0
-132 -130 133 0
-137 -131 133 0
-749 120 0
-748 120 0
-747 120 0
-746 120 0
-745 120 0
-744 120 0
-743 120 0
-742 120 0
-741 120 0
-740 120 0
-739 120 0
-738 120 0
-737 120 0
-736 120 0
-735 120 0
-734 120 0
-733 120 0
-732 120 0
-731 120 0
-730 120 0
-729 120 0
-728 120 0
-727 120 0
-726 120 0
-725 120 0
-724 120 0
-723 120 0
-722 120 0
-721 120 0
-720 120 0
-719 120 0
-718 120 0
-717 120 0
-716 120 0
-715 120 0
-714 120 0
-713 120 0
-712 120 0
-711 120 0
-710 120 0
-709 120 0
-708 120 0
-707 120 0
-706 120 0
-705 120 0
-704 120 0
-703 120 0
-702 120 0
-701 120 0
-700 120 0
-699 120 0
-698 120 0
-697 120 0
-696 120 0
-695 120 0
-694 120 0
-693 120 0
-692 120 0
-691 120 0
-690 120 0
-689 120 0
-688 120 0
-687 120 0
-686 120 0
-685 120 0
-684 120 0
-683 120 0
-682 120 0
-681 120 0
-680 120 0
-679 120 0
-678 120 0
-677 120 0
-676 120 0
-675 120 0
-674 120 0
-673 120 0
-247 1 6 7 16 0
-248 1 6 7 16 0
-250 1 6 7 16 0
-251 1 6 7 16 0
-253 -252 56 256 257 0
-137 56 256 257 0
-270 271 274 0
-408 -252 137 287 293 0
-253 -252 137 287 293 0
-137 287 293 0
-940 454 0
-939 454 0
-938 454 0
-937 454 0
-936 454 0
-935 454 0
-934 454 0
-933 454 0
-932 454 0
-931 454 0
-930 454 0
-929 454 0
-869 454 0
-868 454 0
-776 454 0
-775 454 0
-774 454 0
-767 454 0
-766 454 0
-765 454 0
-764 454 0
-763 454 0
-762 454 0
-761 454 0
-760 454 0
-759 454 0
-758 454 0
-757 454 0
-756 454 0
-755 454 0
-754 454 0
-753 454 0
-752 454 0
-751 454 0
-750 454 0
-672 454 0
-671 454 0
-469 454 0
-468 454 0
-467 454 0
-466 454 0
-447 454 0
-446 454 0
-442 454 0
-441 454 0
-440 454 0
-439 454 0
-428 454 0
-232 454 0
-231 454 0
-230 454 0
-229 454 0
-228 454 0
-227 454 0
-226 454 0
-225 454 0
-224 454 0
-223 454 0
-222 454 0
-221 454 0
-220 454 0
-219 454 0
-218 454 0
-217 454 0
-216 454 0
-416 455 0
-328 455 0
-112 113 0
-293 113 0
-552 113 0
-137 113 0
-899 115 224 336 0
-950 491 0
-949 491 0
-948 491 0
-947 491 0
-946 491 0
-945 491 0
-944 491 0
-943 491 0
-942 491 0
-941 491 0
-917 491 0
-916 491 0
-915 491 0
-914 491 0
-913 491 0
-897 491 0
-891 491 0
-890 491 0
-889 491 0
-888 491 0
-887 491 0
-886 491 0
-885 491 0
-884 491 0
-883 491 0
-882 491 0
-881 491 0
-880 491 0
-879 491 0
-878 491 0
-877 491 0
-876 491 0
-875 491 0
-874 491 0
-873 491 0
-872 491 0
-871 491 0
-870 491 0
-799 491 0
-798 491 0
-797 491 0
-796 491 0
-795 491 0
-794 491 0
-793 491 0
-792 491 0
-791 491 0
-790 491 0
-789 491 0
-788 491 0
-787 491 0
-786 491 0
-785 491 0
-784 491 0
-783 491 0
-782 491 0
-781 491 0
-780 491 0
-779 491 0
-778 491 0
-777 491 0
-490 491 0
-478 491 0
-477 491 0
-471 491 0
-470 491 0
-458 491 0
-457 491 0
143 147 148 149 150 151 152 153 154 0
-206 363 419 497 0
-463 363 419 497 0
-115 363 419 497 0
-494 363 419 497 0
-495 363 419 497 0
-499 363 419 497 0
-57 363 419 497 0
-459 363 419 497 0
-500 363 419 497 0
-501 363 419 497 0
-462 363 419 497 0
-959 205 0
-958 205 0
-957 205 0
-956 205 0
-955 205 0
-954 205 0
-953 205 0
-952 205 0
-951 205 0
-928 205 0
-926 205 0
-925 205 0
-924 205 0
-923 205 0
-922 205 0
-921 205 0
-920 205 0
-919 205 0
-918 205 0
-912 205 0
-911 205 0
-910 205 0
-909 205 0
-908 205 0
-907 205 0
-906 205 0
-905 205 0
-904 205 0
-903 205 0
-902 205 0
-901 205 0
-900 205 0
-899 205 0
-898 205 0
-893 205 0
-892 205 0
-821 205 0
-820 205 0
-819 205 0
-818 205 0
-817 205 0
-816 205 0
-815 205 0
-814 205 0
-813 205 0
-812 205 0
-811 205 0
-810 205 0
-809 205 0
-808 205 0
-807 205 0
-806 205 0
-805 205 0
-804 205 0
-803 205 0
-802 205 0
-801 205 0
-800 205 0
-508 205 0
-503 205 0
-502 205 0
-495 205 0
-494 205 0
-493 205 0
-492 205 0
-976 559 0
-975 559 0
-974 559 0
-973 559 0
-972 559 0
-971 559 0
-970 559 0
-969 559 0
-968 559 0
-967 559 0
-966 559 0
-965 559 0
-964 559 0
-963 559 0
-962 559 0
-961 559 0
-960 559 0
-927 559 0
-895 559 0
-894 559 0
-850 559 0
-849 559 0
-848 559 0
-847 559 0
-846 559 0
-845 559 0
-844 559 0
-843 559 0
-842 559 0
-841 559 0
-840 559 0
-839 559 0
-838 559 0
-837 559 0
-836 559 0
-835 559 0
-834 559 0
-833 559 0
-832 559 0
-831 559 0
-830 559 0
-829 559 0
-828 559 0
-827 559 0
-826 559 0
-825 559 0
-824 559 0
-823 559 0
-822 559 0
-772 559 0
-771 559 0
-770 559 0
-769 559 0
-768 559 0
-555 559 0
-554 559 0
-550 559 0
-539 559 0
-501 559 0
-500 559 0
-499 559 0
-464 559 0
-463 559 0
-462 559 0
-461 559 0
-460 559 0
-459 559 0
-57 559 0
-242 115 243 375 377 379 0
-216 115 243 375 377 379 0
-217 115 243 375 377 379 0
-428 115 243 375 377 379 0
-218 115 243 375 377 379 0
-219 115 243 375 377 379 0
-439 115 243 375 377 379 0
-440 115 243 375 377 379 0
-220 115 243 375 377 379 0
-221 115 243 375 377 379 0
-441 115 243 375 377 379 0
-222 115 243 375 377 379 0
-442 115 243 375 377 379 0
-223 115 243 375 377 379 0
-224 115 243 375 377 379 0
-225 115 243 375 377 379 0
-226 115 243 375 377 379 0
-227 115 243 375 377 379 0
-446 115 243 375 377 379 0
-447 115 243 375 377 379 0
-228 115 243 375 377 379 0
-229 115 243 375 377 379 0
-230 115 243 375 377 379 0
-231 115 243 375 377 379 0
-477 115 243 375 377 379 0
-478 115 243 375 377 379 0
-490 115 243 375 377 379 0
-492 115 243 375 377 379 0
-493 115 243 375 377 379 0
-502 115 243 375 377 379 0
-503 115 243 375 377 379 0
-508 115 243 375 377 379 0
-560 115 243 375 377 379 0
-499 243 377 0
-851 570 0
-852 570 0
-977 570 0
-853 570 0
-854 570 0
-855 570 0
-465 570 0
-856 570 0
-857 570 0
-858 570 0
-560 570 0
-896 570 0
-859 570 0
-860 570 0
-861 570 0
-862 570 0
-863 570 0
-864 570 0
-865 570 0
-866 570 0
-867 570 0
-978 570 0
-979 570 0
-980 570 0
-408 -257 -252 574 575 0
-253 -252 574 575 0
-137 574 575 0
-408 -252 56 574 575 0
131 132 0
-132 -131 0
137 252 578 0
252 578 600 0
137 253 408 578 0
253 408 578 600 0
137 252 579 0
252 579 600 0
137 253 408 579 0
253 408 579 600 0
137 252 474 0
252 474 600 0
137 253 408 474 0
253 408 474 600 0
